bus.lp
Minimize
 + xt_28 + yt_28 -  w_r_29 -  w_l_29 + xt_29 + yt_29 + xt_30 + yt_30 -  w_r_78 + xt_78 + yt_78 + xt_79 + yt_79 + xt_113 + yt_113 + xt_114 + yt_114 -  w_l_115 + xt_115 + yt_115 + xt_116 + yt_116 + xt_117 + yt_117 + xt_118 + yt_118 + xt_128 + yt_128 -  w_r_129 -  w_l_129 + xt_129 + yt_129 + xt_130 + yt_130 + xt_131 + yt_131 + xt_132 + yt_132

Subject To
1 y_28 + -1 x_28  <= -23.5739
1 y_28 + -1 x_28  <= -21.6689
1 y_28 + -1 x_28  <= -22.6214
1 y_28 + -1 x_28  <= -24.4064
1 y_28 + -1 x_28  <= -24.3692
1 y_28 + -0 x_28  <= 138.42
1 y_28 + -1 x_28  <= -24.5264
x_28 - xt_28 <= 163.06
x_28 + xt_28 >= 163.06
y_28 - yt_28 <= 138.4
y_28 + yt_28 >= 138.4
1 y_29 + 0 x_29  - w_l_29 >= 140.258
1 y_29 + 0 x_29  - w_l_29 >= 140.258
1 y_29 + -1 x_29  <= -28.0814
1 y_29 + -0 x_29  + w_r_29 <= 140.346
1 y_29 + 0 x_29  - w_l_29 >= 140.295
x_29 - xt_29 <= 168.635
x_29 + xt_29 >= 168.635
y_29 - yt_29 <= 140.3
y_29 + yt_29 >= 140.3
1 y_30 + 1 x_30  <= 312.902
1 y_30 + -0 x_30  <= 139.72
1 y_30 + 1 x_30  <= 313.701
x_30 - xt_30 <= 172.91
x_30 + xt_30 >= 172.91
y_30 - yt_30 <= 139.7
y_30 + yt_30 >= 139.7
1 y_78 + 0 x_78  + w_r_78 <= 127.97
1 y_78 + -0 x_78  + w_r_78 <= 127.996
1 y_78 + 0 x_78  + w_r_78 <= 127.97
x_78 - xt_78 <= 166.56
x_78 + xt_78 >= 166.56
y_78 - yt_78 <= 127.95
y_78 + yt_78 >= 127.95
1 y_79 + -1 x_79  <= -41.9692
1 y_79 + -1 x_79  >= -44.2702
x_79 - xt_79 <= 172.735
x_79 + xt_79 >= 172.735
y_79 - yt_79 <= 128.725
y_79 + yt_79 >= 128.725
1 y_113 + -1 x_113  >= -24.1136
x_113 - xt_113 <= 161.31
x_113 + xt_113 >= 161.31
y_113 - yt_113 <= 137.45
y_113 + yt_113 >= 137.45
1 y_114 + -1 x_114  <= -23.5739
1 y_114 + -1 x_114  <= -21.6689
1 y_114 + -1 x_114  >= -24.3008
0 y_114 + 1 x_114  <= 163.105
1 y_114 + -1 x_114  <= -22.6214
x_114 - xt_114 <= 163.035
x_114 + xt_114 >= 163.035
y_114 - yt_114 <= 139.025
y_114 + yt_114 >= 139.025
1 y_115 + -0 x_115  - w_l_115 >= 140.58
1 y_115 + 0 x_115  - w_l_115 >= 140.554
1 y_115 + 0 x_115  - w_l_115 >= 140.58
x_115 - xt_115 <= 169.035
x_115 + xt_115 >= 169.035
y_115 - yt_115 <= 140.6
y_115 + yt_115 >= 140.6
1 y_116 + 1 x_116  >= 312.969
1 y_116 + 1 x_116  >= 313.944
x_116 - xt_116 <= 173.735
x_116 + xt_116 >= 173.735
y_116 - yt_116 <= 140.325
y_116 + yt_116 >= 140.325
0 y_117 + 1 x_117  >= 173.976
x_117 - xt_117 <= 174.085
x_117 + xt_117 >= 174.085
y_117 - yt_117 <= 140.05
y_117 + yt_117 >= 140.05
x_118 - xt_118 <= 174.235
x_118 + xt_118 >= 174.235
y_118 - yt_118 <= 139.975
y_118 + yt_118 >= 139.975
1 y_128 + 0 x_128  >= 128.555
1 y_128 + 1 x_128  >= 289.931
x_128 - xt_128 <= 161.485
x_128 + xt_128 >= 161.485
y_128 - yt_128 <= 128.575
y_128 + yt_128 >= 128.575
1 y_129 + -0 x_129  + w_r_129 <= 128.322
1 y_129 + -0 x_129  + w_r_129 <= 128.322
1 y_129 + 0 x_129  - w_l_129 >= 128.204
0 y_129 + 1 x_129  >= 166.009
1 y_129 + -0 x_129  + w_r_129 <= 128.285
x_129 - xt_129 <= 166.16
x_129 + xt_129 >= 166.16
y_129 - yt_129 <= 128.25
y_129 + yt_129 >= 128.25
1 y_130 + 0 x_130  >= 128.505
1 y_130 + -1 x_130  <= -42.2153
x_130 - xt_130 <= 170.785
x_130 + xt_130 >= 170.785
y_130 - yt_130 <= 128.525
y_130 + yt_130 >= 128.525
x_131 - xt_131 <= 171.06
x_131 + xt_131 >= 171.06
y_131 - yt_131 <= 129.125
y_131 + yt_131 >= 129.125
1 y_132 + -1 x_132  >= -43.6508
1 y_132 + -1 x_132  >= -43.522
1 y_132 + -1 x_132  >= -42.7219
1 y_132 + -1 x_132  >= -41.9218
x_132 - xt_132 <= 172.285
x_132 + xt_132 >= 172.285
y_132 - yt_132 <= 130.675
y_132 + yt_132 >= 130.675
 + 7.874 w_r_29 + 7.874 w_l_29 <= 11.7447
 + 7.874 w_r_78 <= 12.7447
 + 7.874 w_l_115 <= 8.74472
 + 7.874 w_r_129 + 7.874 w_l_129 <= 9.74472

Bounds
x_28 >= 0
y_28 >= 0
x_29 >= 0
y_29 >= 0
w_l_29 >= 0
w_l_29 >= 0
w_r_29 >= 0
w_l_29 >= 0
x_30 >= 0
y_30 >= 0
x_78 >= 0
y_78 >= 0
w_r_78 >= 0
w_r_78 >= 0
w_r_78 >= 0
x_79 >= 0
y_79 >= 0
x_113 >= 0
y_113 >= 0
x_114 >= 0
y_114 >= 0
x_115 >= 0
y_115 >= 0
w_l_115 >= 0
w_l_115 >= 0
w_l_115 >= 0
x_116 >= 0
y_116 >= 0
x_117 >= 0
y_117 >= 0
x_118 >= 0
y_118 >= 0
x_128 >= 0
y_128 >= 0
x_129 >= 0
y_129 >= 0
w_r_129 >= 0
w_r_129 >= 0
w_l_129 >= 0
w_r_129 >= 0
x_130 >= 0
y_130 >= 0
x_131 >= 0
y_131 >= 0
x_132 >= 0
y_132 >= 0
End
