bus.lp.sol
xt_28 0
yt_28 0
w_r_29 0.046
w_l_29 0.005
xt_29 0
yt_29 0
xt_30 0
yt_30 0
w_r_78 1.61858
xt_78 0
yt_78 1.59858
xt_79 0
yt_79 0
xt_113 0
yt_113 0
xt_114 0
yt_114 0
w_l_115 1.11058
xt_115 0
yt_115 1.09058
xt_116 0
yt_116 0
xt_117 0
yt_117 0
xt_118 0
yt_118 0
xt_128 0
yt_128 0
w_r_129 0.035
w_l_129 0.046
xt_129 0
yt_129 0
xt_130 0
yt_130 0
xt_131 0
yt_131 0
xt_132 0
yt_132 0
y_28 138.4
x_28 163.06
y_29 140.3
x_29 168.635
y_30 139.7
x_30 172.91
y_78 126.351
x_78 166.56
y_79 128.725
x_79 172.735
y_113 137.45
x_113 161.31
y_114 139.025
x_114 163.035
y_115 141.691
x_115 169.035
y_116 140.325
x_116 173.735
y_117 140.05
x_117 174.085
x_118 174.235
y_118 139.975
y_128 128.575
x_128 161.485
y_129 128.25
x_129 166.16
y_130 128.525
x_130 170.785
x_131 171.06
y_131 129.125
y_132 130.675
x_132 172.285
